[VALIDATOR STDOUT]
Checking plan: /home/jfan5/Safety-gen/runs/benchmark/optic/grid_20260201_173417/grid/optic_results/grid_x7_y7_sh2_k4_l4_s7001.plan
Plan executed successfully - checking goal
Plan valid
Final value: 50 

Successful plans:
Value: 50
 /home/jfan5/Safety-gen/runs/benchmark/optic/grid_20260201_173417/grid/optic_results/grid_x7_y7_sh2_k4_l4_s7001.plan 50
